Problem:    
Rows:       100
Columns:    100 (100 integer, 0 binary)
Non-zeros:  280
Status:     INTEGER OPTIMAL
Objective:  obj = 0.612735 (MINimum)

   No.   Row name        Activity     Lower bound   Upper bound
------ ------------    ------------- ------------- -------------
     1 r.5                         0             0               
     2 r.6                         0             0               
     3 r.7                         0             0               
     4 r.8                         0             0               
     5 r.9                         0             0               
     6 r.10                        0             0               
     7 r.11                        0             0               
     8 r.12                        0             0               
     9 r.13                        0             0               
    10 r.14                        0             0               
    11 r.15                        0             0               
    12 r.16                        0             0               
    13 r.17                        0             0               
    14 r.18                        0             0               
    15 r.19                        0             0               
    16 r.20                        0             0               
    17 r.21                        0             0               
    18 r.22                        0             0               
    19 r.23                        0             0               
    20 r.24                        0             0               
    21 r.25                        0             0               
    22 r.26                        0             0               
    23 r.27                        0             0               
    24 r.28                        0             0               
    25 r.29                        0             0               
    26 r.30                        0             0               
    27 r.31                        0             0               
    28 r.32                        0             0               
    29 r.33                        0             0               
    30 r.34                        0             0               
    31 r.35                        0             0               
    32 r.36                        0             0               
    33 r.37                        0             0               
    34 r.38                        0             0               
    35 r.39                        0             0               
    36 r.40                        0             0               
    37 r.41                        0             0               
    38 r.42                        0             0               
    39 r.43                        0             0               
    40 r.44                        0             0               
    41 r.45                        0             0               
    42 r.46                        0             0               
    43 r.47                        0             0               
    44 r.48                        0             0               
    45 r.49                        0             0               
    46 r.50                        0             0               
    47 r.51                        0             0               
    48 r.52                        0             0               
    49 r.53                        0             0               
    50 r.54                        0             0               
    51 r.55                        0             0               
    52 r.56                        0             0               
    53 r.57                        0             0               
    54 r.58                        0             0               
    55 r.59                        0             0               
    56 r.60                        0             0               
    57 r.61                        0             0               
    58 r.62                        0             0               
    59 r.63                        0             0               
    60 r.64                        0             0               
    61 r.65                        0             0               
    62 r.66                        0             0               
    63 r.67                        0             0               
    64 r.68                        0             0               
    65 r.69                        0             0               
    66 r.70                        0             0               
    67 r.71                        0             0               
    68 r.72                        0             0               
    69 r.73                        0             0               
    70 r.74                        0             0               
    71 r.75                        0             0               
    72 r.76                        0             0               
    73 r.77                        0             0               
    74 r.78                        0             0               
    75 r.79                        0             0               
    76 r.80                        0             0               
    77 r.81                        0             0               
    78 r.82                        0             0               
    79 r.83                        0             0               
    80 r.84                        0             0               
    81 r.85                        0             0               
    82 r.86                        0             0               
    83 r.87                        0             0               
    84 r.88                        0             0               
    85 r.89                        0             0               
    86 r.90                        0             0               
    87 r.91                        0             0               
    88 r.92                        0             0               
    89 r.93                        0             0               
    90 r.94                        0             0               
    91 r.95                        1             1             = 
    92 r.96                        1             1             = 
    93 r.97                        1             1             = 
    94 r.98                        1             1             = 
    95 r.99                        1             1             = 
    96 r.100                       1             1             = 
    97 r.101                       1             1             = 
    98 r.102                       1             1             = 
    99 r.103                       1             1             = 
   100 r.104                       1             1             = 

   No. Column name       Activity     Lower bound   Upper bound
------ ------------    ------------- ------------- -------------
     1 y0           *              0             0               
     2 y1           *              0             0               
     3 y2           *              0             0               
     4 y3           *              1             0               
     5 y4           *              0             0               
     6 y5           *              0             0               
     7 y6           *              0             0               
     8 y7           *              0             0               
     9 y8           *              0             0               
    10 y9           *              0             0               
    11 x01          *              0             0               
    12 x02          *              0             0               
    13 x03          *              0             0               
    14 x04          *              0             0               
    15 x05          *              0             0               
    16 x06          *              0             0               
    17 x07          *              0             0               
    18 x08          *              0             0               
    19 x09          *              0             0               
    20 x10          *              0             0               
    21 x12          *              0             0               
    22 x13          *              0             0               
    23 x14          *              0             0               
    24 x15          *              0             0               
    25 x16          *              0             0               
    26 x17          *              0             0               
    27 x18          *              0             0               
    28 x19          *              0             0               
    29 x20          *              0             0               
    30 x21          *              0             0               
    31 x23          *              0             0               
    32 x24          *              0             0               
    33 x25          *              0             0               
    34 x26          *              0             0               
    35 x27          *              0             0               
    36 x28          *              0             0               
    37 x29          *              0             0               
    38 x30          *              1             0               
    39 x31          *              1             0               
    40 x32          *              1             0               
    41 x34          *              1             0               
    42 x35          *              1             0               
    43 x36          *              1             0               
    44 x37          *              1             0               
    45 x38          *              1             0               
    46 x39          *              1             0               
    47 x40          *              0             0               
    48 x41          *              0             0               
    49 x42          *              0             0               
    50 x43          *              0             0               
    51 x45          *              0             0               
    52 x46          *              0             0               
    53 x47          *              0             0               
    54 x48          *              0             0               
    55 x49          *              0             0               
    56 x50          *              0             0               
    57 x51          *              0             0               
    58 x52          *              0             0               
    59 x53          *              0             0               
    60 x54          *              0             0               
    61 x56          *              0             0               
    62 x57          *              0             0               
    63 x58          *              0             0               
    64 x59          *              0             0               
    65 x60          *              0             0               
    66 x61          *              0             0               
    67 x62          *              0             0               
    68 x63          *              0             0               
    69 x64          *              0             0               
    70 x65          *              0             0               
    71 x67          *              0             0               
    72 x68          *              0             0               
    73 x69          *              0             0               
    74 x70          *              0             0               
    75 x71          *              0             0               
    76 x72          *              0             0               
    77 x73          *              0             0               
    78 x74          *              0             0               
    79 x75          *              0             0               
    80 x76          *              0             0               
    81 x78          *              0             0               
    82 x79          *              0             0               
    83 x80          *              0             0               
    84 x81          *              0             0               
    85 x82          *              0             0               
    86 x83          *              0             0               
    87 x84          *              0             0               
    88 x85          *              0             0               
    89 x86          *              0             0               
    90 x87          *              0             0               
    91 x89          *              0             0               
    92 x90          *              0             0               
    93 x91          *              0             0               
    94 x92          *              0             0               
    95 x93          *              0             0               
    96 x94          *              0             0               
    97 x95          *              0             0               
    98 x96          *              0             0               
    99 x97          *              0             0               
   100 x98          *              0             0               

Integer feasibility conditions:

KKT.PE: max.abs.err = 0.00e+00 on row 0
        max.rel.err = 0.00e+00 on row 0
        High quality

KKT.PB: max.abs.err = 0.00e+00 on row 0
        max.rel.err = 0.00e+00 on row 0
        High quality

End of output
